NAME: PointSet_Angle_35_7
TYPE: TSP
COMMENT: Points chosen discrete uniformly at random out of ${0, \ldots, 500}^2$.
DIMENSION: 35
EDGE_WEIGHT_TYPE: EUC_2D
NODE_COORD_SECTION
1 430 316
2 411 136
3 137 156
4 449 240
5 44 214
6 0 405
7 426 239
8 148 173
9 321 153
10 54 170
11 138 417
12 220 95
13 49 371
14 185 415
15 215 155
16 80 144
17 217 491
18 26 355
19 147 475
20 341 191
21 436 341
22 342 361
23 326 236
24 33 394
25 390 87
26 63 27
27 250 29
28 369 45
29 401 53
30 206 115
31 455 287
32 5 172
33 277 31
34 273 170
35 252 113
EOF
